data/instances/vrp_files/train_36.vrp
NAME : 36
COMMENT : Generated instance No. 36
TYPE : CVRP
DIMENSION : 21
EDGE_WEIGHT_TYPE : EUC_2D
CAPACITY : 30
NODE_COORD_SECTION
 1 967 417
 2 463 909
 3 538 497
 4 105 656
 5 822 380
 6 775 964
 7 203 523
 8 287 792
 9 577 634
 10 797 395
 11 915 533
 12 157 695
 13 793 316
 14 857 906
 15 276 983
 16 140 202
 17 184 893
 18 654 152
 19 440 615
 20 83 882
 21 803 505
DEMAND_SECTION
1 0
2 7
3 5
4 5
5 2
6 4
7 6
8 10
9 7
10 5
11 9
12 3
13 1
14 4
15 9
16 4
17 2
18 10
19 5
20 3
21 9
DEPOT_SECTION
 1
 -1
EOF